CMD:
./solvers/bin/cadical --plain --no-reduce -t 1600 ./data/cnfs//rast-p06/rast-p06.1.cnf

c --- [ banner ] -------------------------------------------------------------
c 
c CaDiCaL SAT Solver
c Copyright (c) 2016-2024
c A. Biere, M. Fleury, N. Froleyks, K. Fazekas, F. Pollitt, T. Faller
c JKU Linz, University of Freiburg, TU Wien
c 
c Version 2.1.3 5296d3d2a9bf48c154ab2acb5e44625776d821bf
c g++ (Gentoo 12.3.1_p20230526 p2) 12.3.1 20230526 -Wall -Wextra -O3 -DNDEBUG
c Sat Aug 9 07:26:21 PDT 2025 Linux cedar2.int.cedar.computecanada.ca 5.14.0-362.24.2.el9_3.x86_64 x86_64
c 
c --- [ limit ] --------------------------------------------------------------
c 
c setting time limit to 1600 seconds real time (due to '-t 1600')
c 
c --- [ parsing input ] ------------------------------------------------------
c 
c reading DIMACS file from './data/cnfs//rast-p06/rast-p06.1.cnf'
c opening file to read './data/cnfs//rast-p06/rast-p06.1.cnf'
c found 'p cnf 113209 325006' header
c parsed 325006 clauses in 0.04 seconds process time
c 
c --- [ options ] ------------------------------------------------------------
c 
c   --compact=false                (different from default 'true')
c   --decompose=false              (different from default 'true')
c   --deduplicate=false            (different from default 'true')
c   --elim=false                   (different from default 'true')
c   --probe=false                  (different from default 'true')
c   --reduce=false                 (different from default 'true')
c   --subsume=false                (different from default 'true')
c   --ternary=false                (different from default 'true')
c   --transred=false               (different from default 'true')
c   --vivify=false                 (different from default 'true')
c 
c --- [ solving ] ------------------------------------------------------------
c 
c time measured in process time since initialization
c 
c  seconds  reductions  redundant  irredundant
c         MB    restarts       trail      variables
c          level   conflicts       glue        remaining
c 
c *  0.04 40  0 0   0    0    0  0% 0 176310 8716  8%
c {  0.04 40  0 0   0    0    0  0% 0 176310 8716  8%
c i  0.04 40  1 0   0    1    0 93% 0 176310 8715  8%
c i  0.04 40  1 0   0    2    0 93% 0 176310 8714  8%
c i  0.04 41 133 0   0   10    7 95% 1 176310 8712  8%
c i  0.04 41 148 0   0   12    8 95% 1 176310 8273  7%
c i  0.05 41 163 0   0   14    9 95% 1 176310 8248  7%
c i  0.05 41 173 0   0   16    9 95% 1 176310 7960  7%
c i  0.05 41 87 0  14  183  166 92% 2 176310 7800  7%
c i  0.05 41 87 0  14  184  166 92% 2 176310 7768  7%
c }  0.05 41 79 0  14  221  189 92% 2 176310 7765  7%
c 0  0.05 41 79 0  14  221  189 92% 2 176310 7765  7%
c 
c --- [ result ] -------------------------------------------------------------
c 
s UNSATISFIABLE
c 
c --- [ run-time profiling ] -------------------------------------------------
c 
c process time taken by individual solving procedures
c (percentage relative to process time for solving)
c 
c         0.04  313.00% parse
c         0.01   99.10% search
c         0.01   89.78% unstable
c         0.00    9.20% lucky
c         0.00    0.00% simplify
c   =================================
c         0.01   23.99% solve
c 
c last line shows process time for solving
c (percentage relative to total process time)
c 
c --- [ statistics ] ---------------------------------------------------------
c 
c chronological:               138        62.44 %  of conflicts
c conflicts:                   221     17115.86    per second
c decisions:                  3305    255963.44    per second
c fixed:                    102881        90.88 %  of all variables
c learned:                     201        90.95 %  per conflict
c learned_lits:                801       100.00 %  learned literals
c minimized:                     0         0.00 %  learned literals
c shrunken:                     45         5.62 %  learned literals
c minishrunken:                 44         5.49 %  learned literals
c otfs:                          1         0.45 %  of conflict
c propagations:             167158        12.95 M  per second
c restarts:                     14        15.79    interval
c subsumed:                      2         0.00 %  of all clauses
c strengthened:                  1         0.00 %  of all clauses
c 
c seconds are measured in process time for solving
c 
c --- [ resources ] ----------------------------------------------------------
c 
c total process time since initialization:         0.05    seconds
c total real time since initialization:            0.06    seconds
c maximum resident set size of process:           38.61    MB
c 
c --- [ shutting down ] ------------------------------------------------------
c 
c exit 20
